* #variable= 26 #constraint= 1
-6 x1 +2 x2 +7 x3 +12 x4 +16 x5 +4 x6 +10 x7 +16 x8 +24 x9 -0 x10 +2 x11 +4 x12 +7 x13 -0 x14 +3 x15 +5 x16 +7 x17 +3 x18 +8 x19 +12 x20 +18 x21 -6 x22 -4 x23 -6 x24 -7 x25 -3 x26 >= 30;
